% seed = 0

mint = 56;
% maxt = 149;

nActs = 51;
dur = [0,2,1,1,5,4,4,2,5,5,4,1,3,4,3,2,3,3,2,4,2,2,1,1,5,4,4,2,5,5,4,1,3,4,3,2,3,3,2,4,2,2,1,1,5,4,4,2,5,5,0];

nSkills = 3;
sreq = [| 0,0,0,
	| 5,2,2,
	| 3,0,2,
	| 5,4,3,
	| 5,5,4,
	| 0,0,4,
	| 3,5,0,
	| 0,4,4,
	| 0,2,0,
	| 3,2,0,
	| 3,0,2,
	| 4,1,0,
	| 0,4,0,
	| 2,0,2,
	| 5,5,4,
	| 1,5,0,
	| 4,5,4,
	| 5,3,3,
	| 0,2,3,
	| 0,0,6,
	| 1,6,0,
	| 5,2,2,
	| 0,5,2,
	| 5,4,3,
	| 0,5,4,
	| 4,1,4,
	| 0,5,0,
	| 2,4,0,
	| 0,2,0,
	| 3,2,0,
	| 3,3,2,
	| 4,1,0,
	| 1,0,4,
	| 2,2,0,
	| 5,5,4,
	| 1,0,4,
	| 4,5,0,
	| 5,3,3,
	| 3,2,3,
	| 2,4,0,
	| 1,6,0,
	| 5,0,2,
	| 3,5,2,
	| 5,4,3,
	| 5,0,4,
	| 4,1,4,
	| 3,5,2,
	| 2,0,4,
	| 0,2,2,
	| 3,0,0,
	| 0,0,0, |];

% SumOfsreq = 363;

nResources = 22;
mastery = [| true,false,false,
	| true,false,false,
	| true,false,false,
	| true,false,false,
	| true,false,true,
	| false,true,false,
	| false,true,false,
	| false,false,true,
	| false,false,true,
	| false,true,false,
	| true,true,false,
	| false,true,false,
	| false,false,true,
	| false,false,true,
	| true,false,true,
	| false,true,true,
	| true,true,true,
	| false,true,true,
	| false,false,true,
	| true,true,false,
	| false,false,true,
	| false,true,false, |];

nPrecs = 87;
pred = [1,1,1,2,2,3,3,3,4,4,5,5,6,6,7,7,7,8,8,9,9,10,11,12,13,13,14,15,16,17,18,18,19,20,21,21,21,22,22,23,23,23,24,24,25,25,26,26,27,27,27,28,28,29,29,30,31,32,33,33,34,35,36,37,38,38,39,40,41,41,41,42,42,43,43,43,44,44,45,45,46,46,47,47,48,49,50];
succ = [2,3,4,5,6,5,7,8,5,6,9,10,9,10,9,10,12,9,11,15,16,13,14,13,18,19,19,17,17,20,20,21,20,22,22,23,24,25,26,25,27,28,25,26,29,30,29,30,29,30,32,29,31,35,36,33,34,33,38,39,39,37,37,40,41,40,40,42,42,43,44,45,46,45,47,48,45,46,49,50,49,50,49,50,49,51,51];

nUnrels = 275;
unpred = [2,2,2,2,2,2,2,3,3,4,4,4,4,4,5,5,5,5,5,5,6,6,6,6,6,7,7,7,8,8,8,8,8,8,8,8,8,8,8,8,9,9,9,9,9,9,9,9,9,9,9,9,9,9,9,10,10,10,10,10,10,11,11,11,11,11,11,11,11,11,11,11,11,11,11,12,12,12,12,13,13,13,13,14,14,14,14,14,14,14,14,14,14,14,14,15,15,15,15,15,15,15,15,15,15,15,16,16,16,16,16,16,16,16,16,16,17,17,17,17,17,17,17,17,17,17,18,19,19,19,19,19,19,19,19,20,20,20,20,20,20,20,20,22,22,22,22,22,22,22,23,23,24,24,24,24,24,25,25,25,25,25,25,26,26,26,26,26,27,27,27,28,28,28,28,28,28,28,28,28,29,29,29,29,29,29,29,29,29,29,29,29,30,30,30,30,30,30,31,31,31,31,31,31,31,31,31,31,31,32,32,32,32,33,33,33,33,34,34,34,34,34,34,34,34,34,35,35,35,35,35,35,35,35,36,36,36,36,36,36,36,37,37,37,37,37,37,37,38,39,39,39,39,39,40,40,40,40,40,42,42,42,42,43,43,44,44,45,45,45,46,46,47,48,49];
unsucc = [3,4,7,8,11,12,14,4,6,7,8,11,12,14,6,7,8,11,12,14,7,8,11,12,14,8,11,14,10,12,13,18,21,23,24,27,28,31,32,34,10,11,12,13,14,18,19,21,23,24,27,28,31,32,34,11,12,14,15,16,17,12,13,15,16,17,18,21,23,24,27,28,31,32,34,14,15,16,17,14,15,16,17,15,16,17,18,21,23,24,27,28,31,32,34,16,18,19,21,23,24,27,28,31,32,34,18,19,21,23,24,27,28,31,32,34,18,19,21,23,24,27,28,31,32,34,19,21,23,24,27,28,31,32,34,21,23,24,27,28,31,32,34,23,24,27,28,31,32,34,24,26,27,28,31,32,34,26,27,28,31,32,34,27,28,31,32,34,28,31,34,30,32,33,38,41,43,44,47,48,30,31,32,33,34,38,39,41,43,44,47,48,31,32,34,35,36,37,32,33,35,36,37,38,41,43,44,47,48,34,35,36,37,34,35,36,37,35,36,37,38,41,43,44,47,48,36,38,39,41,43,44,47,48,38,39,41,43,44,47,48,38,39,41,43,44,47,48,39,41,43,44,47,48,41,43,44,47,48,43,44,47,48,44,46,47,48,46,47,48,47,48,48,50,50];

USEFUL_RES = [{},
	{1,2,3,4,5,6,7,8,9,10,11,12,13,14,15,16,17,18,19,20,21,22},
	{1,2,3,4,5,8,9,11,13,14,15,16,17,18,19,20,21},
	{1,2,3,4,5,6,7,8,9,10,11,12,13,14,15,16,17,18,19,20,21,22},
	{1,2,3,4,5,6,7,8,9,10,11,12,13,14,15,16,17,18,19,20,21,22},
	{5,8,9,13,14,15,16,17,18,19,21},
	{1,2,3,4,5,6,7,10,11,12,15,16,17,18,20,22},
	{5,6,7,8,9,10,11,12,13,14,15,16,17,18,19,20,21,22},
	{6,7,10,11,12,16,17,18,20,22},
	{1,2,3,4,5,6,7,10,11,12,15,16,17,18,20,22},
	{1,2,3,4,5,8,9,11,13,14,15,16,17,18,19,20,21},
	{1,2,3,4,5,6,7,10,11,12,15,16,17,18,20,22},
	{6,7,10,11,12,16,17,18,20,22},
	{1,2,3,4,5,8,9,11,13,14,15,16,17,18,19,20,21},
	{1,2,3,4,5,6,7,8,9,10,11,12,13,14,15,16,17,18,19,20,21,22},
	{1,2,3,4,5,6,7,10,11,12,15,16,17,18,20,22},
	{1,2,3,4,5,6,7,8,9,10,11,12,13,14,15,16,17,18,19,20,21,22},
	{1,2,3,4,5,6,7,8,9,10,11,12,13,14,15,16,17,18,19,20,21,22},
	{5,6,7,8,9,10,11,12,13,14,15,16,17,18,19,20,21,22},
	{5,8,9,13,14,15,16,17,18,19,21},
	{1,2,3,4,5,6,7,10,11,12,15,16,17,18,20,22},
	{1,2,3,4,5,6,7,8,9,10,11,12,13,14,15,16,17,18,19,20,21,22},
	{5,6,7,8,9,10,11,12,13,14,15,16,17,18,19,20,21,22},
	{1,2,3,4,5,6,7,8,9,10,11,12,13,14,15,16,17,18,19,20,21,22},
	{5,6,7,8,9,10,11,12,13,14,15,16,17,18,19,20,21,22},
	{1,2,3,4,5,6,7,8,9,10,11,12,13,14,15,16,17,18,19,20,21,22},
	{6,7,10,11,12,16,17,18,20,22},
	{1,2,3,4,5,6,7,10,11,12,15,16,17,18,20,22},
	{6,7,10,11,12,16,17,18,20,22},
	{1,2,3,4,5,6,7,10,11,12,15,16,17,18,20,22},
	{1,2,3,4,5,6,7,8,9,10,11,12,13,14,15,16,17,18,19,20,21,22},
	{1,2,3,4,5,6,7,10,11,12,15,16,17,18,20,22},
	{1,2,3,4,5,8,9,11,13,14,15,16,17,18,19,20,21},
	{1,2,3,4,5,6,7,10,11,12,15,16,17,18,20,22},
	{1,2,3,4,5,6,7,8,9,10,11,12,13,14,15,16,17,18,19,20,21,22},
	{1,2,3,4,5,8,9,11,13,14,15,16,17,18,19,20,21},
	{1,2,3,4,5,6,7,10,11,12,15,16,17,18,20,22},
	{1,2,3,4,5,6,7,8,9,10,11,12,13,14,15,16,17,18,19,20,21,22},
	{1,2,3,4,5,6,7,8,9,10,11,12,13,14,15,16,17,18,19,20,21,22},
	{1,2,3,4,5,6,7,10,11,12,15,16,17,18,20,22},
	{1,2,3,4,5,6,7,10,11,12,15,16,17,18,20,22},
	{1,2,3,4,5,8,9,11,13,14,15,16,17,18,19,20,21},
	{1,2,3,4,5,6,7,8,9,10,11,12,13,14,15,16,17,18,19,20,21,22},
	{1,2,3,4,5,6,7,8,9,10,11,12,13,14,15,16,17,18,19,20,21,22},
	{1,2,3,4,5,8,9,11,13,14,15,16,17,18,19,20,21},
	{1,2,3,4,5,6,7,8,9,10,11,12,13,14,15,16,17,18,19,20,21,22},
	{1,2,3,4,5,6,7,8,9,10,11,12,13,14,15,16,17,18,19,20,21,22},
	{1,2,3,4,5,8,9,11,13,14,15,16,17,18,19,20,21},
	{5,6,7,8,9,10,11,12,13,14,15,16,17,18,19,20,21,22},
	{1,2,3,4,5,11,15,17,20},
	{}];

POTENTIAL_ACT = [{2,3,4,5,7,10,11,12,14,15,16,17,18,21,22,24,26,28,30,31,32,33,34,35,36,37,38,39,40,41,42,43,44,45,46,47,48,50},
	{2,3,4,5,7,10,11,12,14,15,16,17,18,21,22,24,26,28,30,31,32,33,34,35,36,37,38,39,40,41,42,43,44,45,46,47,48,50},
	{2,3,4,5,7,10,11,12,14,15,16,17,18,21,22,24,26,28,30,31,32,33,34,35,36,37,38,39,40,41,42,43,44,45,46,47,48,50},
	{2,3,4,5,7,10,11,12,14,15,16,17,18,21,22,24,26,28,30,31,32,33,34,35,36,37,38,39,40,41,42,43,44,45,46,47,48,50},
	{2,3,4,5,6,7,8,10,11,12,14,15,16,17,18,19,20,21,22,23,24,25,26,28,30,31,32,33,34,35,36,37,38,39,40,41,42,43,44,45,46,47,48,49,50},
	{2,4,5,7,8,9,10,12,13,15,16,17,18,19,21,22,23,24,25,26,27,28,29,30,31,32,34,35,37,38,39,40,41,43,44,46,47,49},
	{2,4,5,7,8,9,10,12,13,15,16,17,18,19,21,22,23,24,25,26,27,28,29,30,31,32,34,35,37,38,39,40,41,43,44,46,47,49},
	{2,3,4,5,6,8,11,14,15,17,18,19,20,22,23,24,25,26,31,33,35,36,38,39,42,43,44,45,46,47,48,49},
	{2,3,4,5,6,8,11,14,15,17,18,19,20,22,23,24,25,26,31,33,35,36,38,39,42,43,44,45,46,47,48,49},
	{2,4,5,7,8,9,10,12,13,15,16,17,18,19,21,22,23,24,25,26,27,28,29,30,31,32,34,35,37,38,39,40,41,43,44,46,47,49},
	{2,3,4,5,7,8,9,10,11,12,13,14,15,16,17,18,19,21,22,23,24,25,26,27,28,29,30,31,32,33,34,35,36,37,38,39,40,41,42,43,44,45,46,47,48,49,50},
	{2,4,5,7,8,9,10,12,13,15,16,17,18,19,21,22,23,24,25,26,27,28,29,30,31,32,34,35,37,38,39,40,41,43,44,46,47,49},
	{2,3,4,5,6,8,11,14,15,17,18,19,20,22,23,24,25,26,31,33,35,36,38,39,42,43,44,45,46,47,48,49},
	{2,3,4,5,6,8,11,14,15,17,18,19,20,22,23,24,25,26,31,33,35,36,38,39,42,43,44,45,46,47,48,49},
	{2,3,4,5,6,7,8,10,11,12,14,15,16,17,18,19,20,21,22,23,24,25,26,28,30,31,32,33,34,35,36,37,38,39,40,41,42,43,44,45,46,47,48,49,50},
	{2,3,4,5,6,7,8,9,10,11,12,13,14,15,16,17,18,19,20,21,22,23,24,25,26,27,28,29,30,31,32,33,34,35,36,37,38,39,40,41,42,43,44,45,46,47,48,49},
	{2,3,4,5,6,7,8,9,10,11,12,13,14,15,16,17,18,19,20,21,22,23,24,25,26,27,28,29,30,31,32,33,34,35,36,37,38,39,40,41,42,43,44,45,46,47,48,49,50},
	{2,3,4,5,6,7,8,9,10,11,12,13,14,15,16,17,18,19,20,21,22,23,24,25,26,27,28,29,30,31,32,33,34,35,36,37,38,39,40,41,42,43,44,45,46,47,48,49},
	{2,3,4,5,6,8,11,14,15,17,18,19,20,22,23,24,25,26,31,33,35,36,38,39,42,43,44,45,46,47,48,49},
	{2,3,4,5,7,8,9,10,11,12,13,14,15,16,17,18,19,21,22,23,24,25,26,27,28,29,30,31,32,33,34,35,36,37,38,39,40,41,42,43,44,45,46,47,48,49,50},
	{2,3,4,5,6,8,11,14,15,17,18,19,20,22,23,24,25,26,31,33,35,36,38,39,42,43,44,45,46,47,48,49},
	{2,4,5,7,8,9,10,12,13,15,16,17,18,19,21,22,23,24,25,26,27,28,29,30,31,32,34,35,37,38,39,40,41,43,44,46,47,49}];
